(set-logic QF_LIA)
(set-info :ran/ran2.smt2)
(set-info :smt-lib-version 2.0)
(declare-fun x1 () Int)
(declare-fun x2 () Int)
(declare-fun x3 () Int)
(declare-fun x4 () Int)
(assert (<= (+ (* 0 x1) (* 7 x2) (* 8 x3) (* (- 4) x4) ) (- 50)))
(assert (<= (+ (* 2 x1) (* 6 x2) (* (- 2) x3) (* (- 3) x4) ) (- 23)))
(assert (<= (+ (* 4 x1) (* (- 8) x2) (* 7 x3) (* (- 5) x4) ) (- 49)))
(assert (<= (+ (* 1 x1) (* (- 5) x2) (* 3 x3) (* (- 7) x4) ) 2))
(assert (<= (+ (* (- 1) x1) (* (- 7) x2) (* (- 8) x3) (* (- 1) x4) ) (- 7)))
(assert (<= (+ (* 8 x1) (* 3 x2) (* 3 x3) (* 2 x4) ) 7))
(assert (<= (+ (* (- 4) x1) (* (- 9) x2) (* 0 x3) (* (- 9) x4) ) 48))
(assert (<= (+ (* 8 x1) (* 3 x2) (* (- 10) x3) (* (- 7) x4) ) (- 29)))
(assert (<= (+ (* 1 x1) (* 0 x2) (* 0 x3) (* 0 x4) ) 50))
(assert (<= (+ (* (- 1) x1) (* 0 x2) (* 0 x3) (* 0 x4) ) 50))
(assert (<= (+ (* 0 x1) (* 1 x2) (* 0 x3) (* 0 x4) ) 50))
(assert (<= (+ (* 0 x1) (* (- 1) x2) (* 0 x3) (* 0 x4) ) 50))
(assert (<= (+ (* 0 x1) (* 0 x2) (* 1 x3) (* 0 x4) ) 50))
(assert (<= (+ (* 0 x1) (* 0 x2) (* (- 1) x3) (* 0 x4) ) 50))
(assert (<= (+ (* 0 x1) (* 0 x2) (* 0 x3) (* 1 x4) ) 50))
(assert (<= (+ (* 0 x1) (* 0 x2) (* 0 x3) (* (- 1) x4) ) 50))
